(set-logic QF_LRA)
(declare-fun X0 () Real )
(declare-fun Y0 () Real )
(declare-fun X1 () Real )
(declare-fun Y1 () Real )
(declare-fun X2 () Real )
(declare-fun Y2 () Real )
(declare-fun X3 () Real )
(declare-fun Y3 () Real )
(declare-fun X4 () Real )
(declare-fun Y4 () Real )
(declare-fun X5 () Real )
(declare-fun Y5 () Real )
(declare-fun X6 () Real )
(declare-fun Y6 () Real )
(declare-fun X7 () Real )
(declare-fun Y7 () Real )
(declare-fun X8 () Real )
(declare-fun Y8 () Real )
(declare-fun X9 () Real )
(declare-fun Y9 () Real )
(declare-fun X10 () Real )
(declare-fun Y10 () Real )
(declare-fun X11 () Real )
(declare-fun Y11 () Real )
(declare-fun Z () Real )
(declare-fun k () Real )
(assert (let
(( $goal (>= Z k) ))
(let
((
$phi ( and 
( or ( <= ( + X0 64 ) X1 )  ( <= ( + X1 62 ) X0 )  ( <= ( + Y0 93 ) Y1 )  ( <= ( + Y1 84 ) Y0 )  )
( or ( <= ( + X0 64 ) X2 )  ( <= ( + X2 66 ) X0 )  ( <= ( + Y0 93 ) Y2 )  ( <= ( + Y2 74 ) Y0 )  )
( or ( <= ( + X0 64 ) X3 )  ( <= ( + X3 11 ) X0 )  ( <= ( + Y0 93 ) Y3 )  ( <= ( + Y3 34 ) Y0 )  )
( or ( <= ( + X0 64 ) X4 )  ( <= ( + X4 70 ) X0 )  ( <= ( + Y0 93 ) Y4 )  ( <= ( + Y4 59 ) Y0 )  )
( or ( <= ( + X0 64 ) X5 )  ( <= ( + X5 94 ) X0 )  ( <= ( + Y0 93 ) Y5 )  ( <= ( + Y5 30 ) Y0 )  )
( or ( <= ( + X0 64 ) X6 )  ( <= ( + X6 18 ) X0 )  ( <= ( + Y0 93 ) Y6 )  ( <= ( + Y6 38 ) Y0 )  )
( or ( <= ( + X0 64 ) X7 )  ( <= ( + X7 97 ) X0 )  ( <= ( + Y0 93 ) Y7 )  ( <= ( + Y7 100 ) Y0 )  )
( or ( <= ( + X0 64 ) X8 )  ( <= ( + X8 49 ) X0 )  ( <= ( + Y0 93 ) Y8 )  ( <= ( + Y8 51 ) Y0 )  )
( or ( <= ( + X0 64 ) X9 )  ( <= ( + X9 52 ) X0 )  ( <= ( + Y0 93 ) Y9 )  ( <= ( + Y9 57 ) Y0 )  )
( or ( <= ( + X0 64 ) X10 )  ( <= ( + X10 63 ) X0 )  ( <= ( + Y0 93 ) Y10 )  ( <= ( + Y10 98 ) Y0 )  )
( or ( <= ( + X0 64 ) X11 )  ( <= ( + X11 18 ) X0 )  ( <= ( + Y0 93 ) Y11 )  ( <= ( + Y11 48 ) Y0 )  )
( or ( <= ( + X1 62 ) X2 )  ( <= ( + X2 66 ) X1 )  ( <= ( + Y1 84 ) Y2 )  ( <= ( + Y2 74 ) Y1 )  )
( or ( <= ( + X1 62 ) X3 )  ( <= ( + X3 11 ) X1 )  ( <= ( + Y1 84 ) Y3 )  ( <= ( + Y3 34 ) Y1 )  )
( or ( <= ( + X1 62 ) X4 )  ( <= ( + X4 70 ) X1 )  ( <= ( + Y1 84 ) Y4 )  ( <= ( + Y4 59 ) Y1 )  )
( or ( <= ( + X1 62 ) X5 )  ( <= ( + X5 94 ) X1 )  ( <= ( + Y1 84 ) Y5 )  ( <= ( + Y5 30 ) Y1 )  )
( or ( <= ( + X1 62 ) X6 )  ( <= ( + X6 18 ) X1 )  ( <= ( + Y1 84 ) Y6 )  ( <= ( + Y6 38 ) Y1 )  )
( or ( <= ( + X1 62 ) X7 )  ( <= ( + X7 97 ) X1 )  ( <= ( + Y1 84 ) Y7 )  ( <= ( + Y7 100 ) Y1 )  )
( or ( <= ( + X1 62 ) X8 )  ( <= ( + X8 49 ) X1 )  ( <= ( + Y1 84 ) Y8 )  ( <= ( + Y8 51 ) Y1 )  )
( or ( <= ( + X1 62 ) X9 )  ( <= ( + X9 52 ) X1 )  ( <= ( + Y1 84 ) Y9 )  ( <= ( + Y9 57 ) Y1 )  )
( or ( <= ( + X1 62 ) X10 )  ( <= ( + X10 63 ) X1 )  ( <= ( + Y1 84 ) Y10 )  ( <= ( + Y10 98 ) Y1 )  )
( or ( <= ( + X1 62 ) X11 )  ( <= ( + X11 18 ) X1 )  ( <= ( + Y1 84 ) Y11 )  ( <= ( + Y11 48 ) Y1 )  )
( or ( <= ( + X2 66 ) X3 )  ( <= ( + X3 11 ) X2 )  ( <= ( + Y2 74 ) Y3 )  ( <= ( + Y3 34 ) Y2 )  )
( or ( <= ( + X2 66 ) X4 )  ( <= ( + X4 70 ) X2 )  ( <= ( + Y2 74 ) Y4 )  ( <= ( + Y4 59 ) Y2 )  )
( or ( <= ( + X2 66 ) X5 )  ( <= ( + X5 94 ) X2 )  ( <= ( + Y2 74 ) Y5 )  ( <= ( + Y5 30 ) Y2 )  )
( or ( <= ( + X2 66 ) X6 )  ( <= ( + X6 18 ) X2 )  ( <= ( + Y2 74 ) Y6 )  ( <= ( + Y6 38 ) Y2 )  )
( or ( <= ( + X2 66 ) X7 )  ( <= ( + X7 97 ) X2 )  ( <= ( + Y2 74 ) Y7 )  ( <= ( + Y7 100 ) Y2 )  )
( or ( <= ( + X2 66 ) X8 )  ( <= ( + X8 49 ) X2 )  ( <= ( + Y2 74 ) Y8 )  ( <= ( + Y8 51 ) Y2 )  )
( or ( <= ( + X2 66 ) X9 )  ( <= ( + X9 52 ) X2 )  ( <= ( + Y2 74 ) Y9 )  ( <= ( + Y9 57 ) Y2 )  )
( or ( <= ( + X2 66 ) X10 )  ( <= ( + X10 63 ) X2 )  ( <= ( + Y2 74 ) Y10 )  ( <= ( + Y10 98 ) Y2 )  )
( or ( <= ( + X2 66 ) X11 )  ( <= ( + X11 18 ) X2 )  ( <= ( + Y2 74 ) Y11 )  ( <= ( + Y11 48 ) Y2 )  )
( or ( <= ( + X3 11 ) X4 )  ( <= ( + X4 70 ) X3 )  ( <= ( + Y3 34 ) Y4 )  ( <= ( + Y4 59 ) Y3 )  )
( or ( <= ( + X3 11 ) X5 )  ( <= ( + X5 94 ) X3 )  ( <= ( + Y3 34 ) Y5 )  ( <= ( + Y5 30 ) Y3 )  )
( or ( <= ( + X3 11 ) X6 )  ( <= ( + X6 18 ) X3 )  ( <= ( + Y3 34 ) Y6 )  ( <= ( + Y6 38 ) Y3 )  )
( or ( <= ( + X3 11 ) X7 )  ( <= ( + X7 97 ) X3 )  ( <= ( + Y3 34 ) Y7 )  ( <= ( + Y7 100 ) Y3 )  )
( or ( <= ( + X3 11 ) X8 )  ( <= ( + X8 49 ) X3 )  ( <= ( + Y3 34 ) Y8 )  ( <= ( + Y8 51 ) Y3 )  )
( or ( <= ( + X3 11 ) X9 )  ( <= ( + X9 52 ) X3 )  ( <= ( + Y3 34 ) Y9 )  ( <= ( + Y9 57 ) Y3 )  )
( or ( <= ( + X3 11 ) X10 )  ( <= ( + X10 63 ) X3 )  ( <= ( + Y3 34 ) Y10 )  ( <= ( + Y10 98 ) Y3 )  )
( or ( <= ( + X3 11 ) X11 )  ( <= ( + X11 18 ) X3 )  ( <= ( + Y3 34 ) Y11 )  ( <= ( + Y11 48 ) Y3 )  )
( or ( <= ( + X4 70 ) X5 )  ( <= ( + X5 94 ) X4 )  ( <= ( + Y4 59 ) Y5 )  ( <= ( + Y5 30 ) Y4 )  )
( or ( <= ( + X4 70 ) X6 )  ( <= ( + X6 18 ) X4 )  ( <= ( + Y4 59 ) Y6 )  ( <= ( + Y6 38 ) Y4 )  )
( or ( <= ( + X4 70 ) X7 )  ( <= ( + X7 97 ) X4 )  ( <= ( + Y4 59 ) Y7 )  ( <= ( + Y7 100 ) Y4 )  )
( or ( <= ( + X4 70 ) X8 )  ( <= ( + X8 49 ) X4 )  ( <= ( + Y4 59 ) Y8 )  ( <= ( + Y8 51 ) Y4 )  )
( or ( <= ( + X4 70 ) X9 )  ( <= ( + X9 52 ) X4 )  ( <= ( + Y4 59 ) Y9 )  ( <= ( + Y9 57 ) Y4 )  )
( or ( <= ( + X4 70 ) X10 )  ( <= ( + X10 63 ) X4 )  ( <= ( + Y4 59 ) Y10 )  ( <= ( + Y10 98 ) Y4 )  )
( or ( <= ( + X4 70 ) X11 )  ( <= ( + X11 18 ) X4 )  ( <= ( + Y4 59 ) Y11 )  ( <= ( + Y11 48 ) Y4 )  )
( or ( <= ( + X5 94 ) X6 )  ( <= ( + X6 18 ) X5 )  ( <= ( + Y5 30 ) Y6 )  ( <= ( + Y6 38 ) Y5 )  )
( or ( <= ( + X5 94 ) X7 )  ( <= ( + X7 97 ) X5 )  ( <= ( + Y5 30 ) Y7 )  ( <= ( + Y7 100 ) Y5 )  )
( or ( <= ( + X5 94 ) X8 )  ( <= ( + X8 49 ) X5 )  ( <= ( + Y5 30 ) Y8 )  ( <= ( + Y8 51 ) Y5 )  )
( or ( <= ( + X5 94 ) X9 )  ( <= ( + X9 52 ) X5 )  ( <= ( + Y5 30 ) Y9 )  ( <= ( + Y9 57 ) Y5 )  )
( or ( <= ( + X5 94 ) X10 )  ( <= ( + X10 63 ) X5 )  ( <= ( + Y5 30 ) Y10 )  ( <= ( + Y10 98 ) Y5 )  )
( or ( <= ( + X5 94 ) X11 )  ( <= ( + X11 18 ) X5 )  ( <= ( + Y5 30 ) Y11 )  ( <= ( + Y11 48 ) Y5 )  )
( or ( <= ( + X6 18 ) X7 )  ( <= ( + X7 97 ) X6 )  ( <= ( + Y6 38 ) Y7 )  ( <= ( + Y7 100 ) Y6 )  )
( or ( <= ( + X6 18 ) X8 )  ( <= ( + X8 49 ) X6 )  ( <= ( + Y6 38 ) Y8 )  ( <= ( + Y8 51 ) Y6 )  )
( or ( <= ( + X6 18 ) X9 )  ( <= ( + X9 52 ) X6 )  ( <= ( + Y6 38 ) Y9 )  ( <= ( + Y9 57 ) Y6 )  )
( or ( <= ( + X6 18 ) X10 )  ( <= ( + X10 63 ) X6 )  ( <= ( + Y6 38 ) Y10 )  ( <= ( + Y10 98 ) Y6 )  )
( or ( <= ( + X6 18 ) X11 )  ( <= ( + X11 18 ) X6 )  ( <= ( + Y6 38 ) Y11 )  ( <= ( + Y11 48 ) Y6 )  )
( or ( <= ( + X7 97 ) X8 )  ( <= ( + X8 49 ) X7 )  ( <= ( + Y7 100 ) Y8 )  ( <= ( + Y8 51 ) Y7 )  )
( or ( <= ( + X7 97 ) X9 )  ( <= ( + X9 52 ) X7 )  ( <= ( + Y7 100 ) Y9 )  ( <= ( + Y9 57 ) Y7 )  )
( or ( <= ( + X7 97 ) X10 )  ( <= ( + X10 63 ) X7 )  ( <= ( + Y7 100 ) Y10 )  ( <= ( + Y10 98 ) Y7 )  )
( or ( <= ( + X7 97 ) X11 )  ( <= ( + X11 18 ) X7 )  ( <= ( + Y7 100 ) Y11 )  ( <= ( + Y11 48 ) Y7 )  )
( or ( <= ( + X8 49 ) X9 )  ( <= ( + X9 52 ) X8 )  ( <= ( + Y8 51 ) Y9 )  ( <= ( + Y9 57 ) Y8 )  )
( or ( <= ( + X8 49 ) X10 )  ( <= ( + X10 63 ) X8 )  ( <= ( + Y8 51 ) Y10 )  ( <= ( + Y10 98 ) Y8 )  )
( or ( <= ( + X8 49 ) X11 )  ( <= ( + X11 18 ) X8 )  ( <= ( + Y8 51 ) Y11 )  ( <= ( + Y11 48 ) Y8 )  )
( or ( <= ( + X9 52 ) X10 )  ( <= ( + X10 63 ) X9 )  ( <= ( + Y9 57 ) Y10 )  ( <= ( + Y10 98 ) Y9 )  )
( or ( <= ( + X9 52 ) X11 )  ( <= ( + X11 18 ) X9 )  ( <= ( + Y9 57 ) Y11 )  ( <= ( + Y11 48 ) Y9 )  )
( or ( <= ( + X10 63 ) X11 )  ( <= ( + X11 18 ) X10 )  ( <= ( + Y10 98 ) Y11 )  ( <= ( + Y11 48 ) Y10 )  )
( >= X0 0)
( <= ( + X0 64) Z)
( >= Y0 0)
( <= ( + Y0 93 ) 100)
( >= X1 0)
( <= ( + X1 62) Z)
( >= Y1 0)
( <= ( + Y1 84 ) 100)
( >= X2 0)
( <= ( + X2 66) Z)
( >= Y2 0)
( <= ( + Y2 74 ) 100)
( >= X3 0)
( <= ( + X3 11) Z)
( >= Y3 0)
( <= ( + Y3 34 ) 100)
( >= X4 0)
( <= ( + X4 70) Z)
( >= Y4 0)
( <= ( + Y4 59 ) 100)
( >= X5 0)
( <= ( + X5 94) Z)
( >= Y5 0)
( <= ( + Y5 30 ) 100)
( >= X6 0)
( <= ( + X6 18) Z)
( >= Y6 0)
( <= ( + Y6 38 ) 100)
( >= X7 0)
( <= ( + X7 97) Z)
( >= Y7 0)
( <= ( + Y7 100 ) 100)
( >= X8 0)
( <= ( + X8 49) Z)
( >= Y8 0)
( <= ( + Y8 51 ) 100)
( >= X9 0)
( <= ( + X9 52) Z)
( >= Y9 0)
( <= ( + Y9 57 ) 100)
( >= X10 0)
( <= ( + X10 63) Z)
( >= Y10 0)
( <= ( + Y10 98 ) 100)
( >= X11 0)
( <= ( + X11 18) Z)
( >= Y11 0)
( <= ( + Y11 48 ) 100)
) )
)(=> $phi $goal))))